0 0 0 0
0 1 0 0
0 2 0 0
0 3 2 0
0 4 1 2
0 5 0 6
0 6 2 6
0 7 0 1
0 8 0 7
0 9 0 6
0 10 0 10
0 11 2 11
0 12 2 10
0 13 0 13
0 14 2 15
0 15 0 21
0 16 0 19
0 17 0 11
0 18 2 15
0 19 0 18
0 20 1 23
0 21 0 22
0 22 2 10
0 23 2 23
0 24 2 29
0 25 0 29
0 26 1 29
0 27 2 23
0 28 1 34
0 29 0 33
0 30 1 37
0 31 0 40
